************************************************************************
file with basedata            : j30_51.bas
initial value random generator: 419162415
************************************************************************
projects                      :  1
jobs (incl. supersource/sink ):  32
horizon                       :  159
RESOURCES
  - renewable                 :  4   R
  - nonrenewable              :  0   N
  - doubly constrained        :  0   D
************************************************************************
PROJECT INFORMATION:
pronr.  #jobs rel.date duedate tardcost  MPM-Time
    1     30      0       60       19       60
************************************************************************
PRECEDENCE RELATIONS:
jobnr.    #modes  #successors   successors
   0        1          3           1   2   3
   1        1          3           4   5   6
   2        1          3           7   8  14
   3        1          3          15  21  22
   4        1          3          11  13  27
   5        1          3           9  13  30
   6        1          3           7  10  14
   7        1          3          12  17  27
   8        1          3           9  10  12
   9        1          3          15  18  25
  10        1          3          11  13  18
  11        1          3          17  19  20
  12        1          3          19  21  30
  13        1          2          15  16
  14        1          3          16  20  22
  15        1          2          23  24
  16        1          2          17  26
  17        1          1          21
  18        1          2          19  22
  19        1          2          23  26
  20        1          2          24  30
  21        1          2          23  24
  22        1          2          26  29
  23        1          1          28
  24        1          1          29
  25        1          2          27  28
  26        1          1          28
  27        1          1          29
  28        1          1          31
  29        1          1          31
  30        1          1          31
  31        1          0        
************************************************************************
REQUESTS/DURATIONS:
jobnr. mode duration  R 1  R 2  R 3  R 4  E(W 1)
------------------------------------------------------------------------
  0      1     0       0    0    0    0     0
  1      1     2       0    0    8    0    16
  2      1     6       0    0    8    0    48
  3      1    10       5    0    0    0    50
  4      1     4       0    2    0    0     8
  5      1     3       0    1    0    0     6
  6      1     4       5    0    0    0    20
  7      1     8       0    3    0    0    24
  8      1     7       6    0    0    0    42
  9      1     2       0    0    0    3     6
 10      1    10       0    0    3    0    30
 11      1     5       0    0    5    0    25
 12      1    10       8    0    0    0    80
 13      1     1       4    0    0    0     4
 14      1     2       8    0    0    0    16
 15      1    10       0    8    0    0    80
 16      1     1       0    0    0    2     2
 17      1     6       7    0    0    0    42
 18      1     9       0    0    0    8    72
 19      1     2       8    0    0    0    16
 20      1     3       0   10    0    0    30
 21      1     6       3    0    0    0    18
 22      1     8       0    0    1    0    16
 23      1     4       0    0    0    8    32
 24      1     1       0    0    0    1     2
 25      1     3       0    6    0    0    18
 26      1    10       0    0    0    1    20
 27      1     8       1    0    0    0    16
 28      1    10       0    8    0    0    80
 29      1     1       0    0    1    0     2
 30      1     3       0    3    0    0     9
 31      1     0       0    0    0    0     0
************************************************************************
RESOURCEAVAILABILITIES:
  R 1
   55
************************************************************************
RESOURCE LIMITS:
jobnr.  l(R 1)  u(R 1)
------------------------------------------------------------------------
  0        0       0
  1        4       8
  2        4       8
  3        3       5
  4        1       2
  5        1       2
  6        3       5
  7        2       3
  8        3       6
  9        2       3
 10        2       3
 11        3       5
 12        4       8
 13        2       4
 14        4       8
 15        4       8
 16        1       2
 17        4       7
 18        4       8
 19        4       8
 20        5      10
 21        2       3
 22        1       2
 23        4       8
 24        1       2
 25        3       6
 26        1       2
 27        1       2
 28        4       8
 29        1       2
 30        2       3
 31        0       0
************************************************************************
SCENARIOS:
------------------------------------------------------------------------
RESOURCE k = 1
s = 1: (0, 21, 32, 68, 13, 7, 26, 30, 47, 8, 27, 22, 83, 5, 19, 70, 3, 54, 82, 15, 20, 27, 13, 58, 2, 18, 17, 14, 98, 3, 9, 0)
s = 2: (0, 14, 54, 49, 10, 6, 18, 19, 29, 8, 19, 27, 43, 4, 16, 59, 2, 43, 62, 18, 42, 17, 18, 52, 3, 13, 21, 10, 71, 3, 12, 0)
s = 3: (0, 15, 42, 48, 8, 4, 16, 26, 37, 6, 27, 33, 105, 7, 11, 74, 2, 43, 58, 19, 36, 15, 13, 39, 2, 13, 20, 17, 67, 2, 9, 0)
s = 4: (0, 16, 51, 44, 7, 7, 20, 32, 47, 5, 43, 24, 68, 5, 17, 62, 4, 37, 45, 18, 24, 17, 19, 24, 3, 20, 17, 14, 75, 2, 9, 0)
s = 5: (0, 16, 71, 46, 10, 7, 20, 35, 49, 6, 19, 23, 80, 3, 17, 58, 2, 65, 53, 14, 29, 24, 15, 46, 3, 18, 14, 13, 49, 2, 10, 0)
s = 6: (0, 17, 42, 43, 8, 5, 25, 23, 37, 9, 39, 26, 54, 5, 17, 123, 2, 32, 96, 12, 22, 29, 18, 50, 2, 12, 15, 15, 63, 4, 7, 0)
s = 7: (0, 21, 55, 53, 6, 7, 14, 27, 60, 6, 23, 17, 76, 4, 12, 67, 3, 34, 75, 21, 23, 21, 15, 26, 2, 20, 20, 15, 101, 2, 9, 0)
s = 8: (0, 15, 37, 63, 11, 6, 16, 14, 35, 6, 31, 33, 87, 3, 9, 74, 3, 72, 60, 15, 30, 13, 15, 39, 3, 21, 17, 26, 54, 2, 12, 0)
s = 9: (0, 10, 61, 60, 8, 6, 19, 17, 30, 8, 23, 20, 83, 4, 19, 87, 3, 26, 92, 11, 29, 25, 17, 30, 3, 14, 27, 18, 136, 2, 8, 0)
s = 10: (0, 21, 46, 36, 6, 9, 21, 31, 26, 6, 24, 23, 70, 6, 14, 50, 2, 35, 54, 17, 34, 10, 16, 49, 2, 24, 16, 28, 67, 2, 10, 0)
s = 11: (0, 13, 56, 50, 5, 4, 24, 41, 46, 7, 30, 23, 80, 5, 15, 103, 2, 46, 77, 24, 25, 21, 13, 32, 2, 19, 18, 17, 55, 2, 12, 0)
s = 12: (0, 17, 30, 29, 12, 7, 18, 21, 34, 6, 39, 27, 55, 6, 14, 49, 4, 40, 108, 19, 18, 11, 25, 41, 2, 18, 23, 21, 41, 2, 6, 0)
s = 13: (0, 14, 35, 29, 6, 6, 19, 18, 57, 6, 46, 33, 80, 5, 20, 67, 3, 67, 103, 11, 31, 17, 13, 23, 2, 13, 24, 15, 55, 3, 8, 0)
s = 14: (0, 19, 42, 54, 12, 4, 13, 23, 31, 6, 20, 31, 78, 5, 15, 107, 3, 32, 59, 24, 33, 15, 24, 41, 2, 14, 19, 20, 63, 3, 8, 0)
s = 15: (0, 13, 68, 77, 8, 9, 20, 24, 35, 7, 24, 26, 71, 4, 17, 88, 2, 28, 66, 14, 39, 22, 14, 21, 3, 12, 24, 12, 57, 3, 9, 0)
s = 16: (0, 11, 29, 80, 7, 10, 18, 19, 66, 7, 26, 36, 72, 5, 16, 133, 4, 54, 79, 9, 59, 14, 15, 47, 3, 17, 18, 15, 92, 3, 12, 0)
s = 17: (0, 9, 37, 46, 8, 4, 14, 24, 32, 7, 40, 26, 93, 3, 11, 48, 2, 68, 76, 10, 27, 29, 26, 28, 3, 26, 15, 16, 65, 3, 12, 0)
s = 18: (0, 10, 50, 44, 10, 7, 20, 26, 39, 5, 30, 30, 70, 3, 26, 97, 2, 40, 55, 14, 30, 15, 20, 28, 2, 15, 17, 24, 66, 3, 8, 0)
s = 19: (0, 23, 31, 62, 10, 8, 15, 24, 29, 6, 48, 27, 82, 5, 24, 66, 3, 44, 71, 13, 25, 23, 14, 23, 3, 20, 23, 12, 56, 4, 11, 0)
s = 20: (0, 20, 60, 78, 8, 4, 23, 17, 28, 8, 31, 18, 156, 5, 20, 102, 3, 24, 56, 16, 30, 19, 15, 32, 2, 30, 17, 19, 111, 3, 8, 0)
s = 21: (0, 25, 68, 45, 7, 4, 25, 35, 51, 5, 32, 24, 69, 7, 14, 120, 3, 32, 50, 18, 31, 19, 18, 26, 2, 16, 18, 19, 48, 3, 9, 0)
s = 22: (0, 13, 40, 52, 10, 4, 27, 24, 42, 6, 43, 18, 68, 6, 15, 88, 2, 28, 64, 19, 27, 24, 12, 21, 2, 24, 24, 18, 55, 2, 12, 0)
s = 23: (0, 22, 33, 34, 12, 5, 12, 23, 61, 6, 35, 20, 53, 3, 13, 63, 3, 30, 52, 14, 32, 15, 15, 41, 3, 15, 12, 10, 98, 2, 11, 0)
s = 24: (0, 16, 46, 61, 9, 5, 12, 19, 42, 8, 54, 39, 63, 5, 12, 82, 2, 43, 55, 19, 25, 26, 17, 39, 2, 16, 28, 18, 101, 3, 9, 0)
s = 25: (0, 16, 63, 44, 9, 6, 30, 20, 38, 5, 41, 27, 91, 5, 16, 67, 4, 28, 72, 14, 34, 11, 14, 35, 3, 25, 19, 10, 77, 3, 11, 0)
s = 26: (0, 16, 44, 37, 9, 5, 21, 23, 53, 5, 33, 36, 94, 5, 11, 81, 3, 59, 73, 12, 24, 28, 29, 45, 2, 13, 21, 14, 59, 2, 7, 0)
s = 27: (0, 19, 37, 55, 10, 6, 28, 18, 48, 7, 42, 19, 61, 4, 21, 87, 3, 61, 85, 15, 39, 26, 13, 39, 3, 16, 23, 18, 97, 2, 11, 0)
s = 28: (0, 13, 47, 44, 8, 6, 19, 27, 46, 7, 22, 20, 86, 3, 20, 59, 4, 25, 60, 22, 27, 18, 20, 31, 4, 18, 17, 21, 129, 3, 8, 0)
s = 29: (0, 11, 42, 45, 8, 5, 16, 17, 26, 8, 31, 24, 110, 4, 12, 68, 3, 54, 62, 13, 38, 16, 11, 34, 2, 17, 34, 18, 59, 2, 8, 0)
s = 30: (0, 19, 57, 51, 9, 6, 30, 13, 51, 6, 17, 24, 79, 4, 20, 73, 3, 54, 60, 12, 20, 23, 12, 25, 4, 30, 23, 22, 90, 2, 9, 0)
s = 31: (0, 20, 61, 39, 9, 5, 17, 18, 57, 6, 35, 16, 68, 6, 20, 74, 2, 39, 84, 18, 28, 14, 13, 34, 3, 22, 16, 11, 57, 3, 10, 0)
s = 32: (0, 18, 65, 46, 10, 5, 27, 21, 42, 5, 33, 21, 73, 3, 10, 57, 2, 39, 58, 19, 40, 16, 27, 29, 3, 12, 30, 16, 83, 3, 10, 0)
s = 33: (0, 14, 47, 37, 7, 11, 17, 19, 26, 6, 43, 14, 42, 4, 16, 90, 3, 43, 69, 13, 37, 21, 15, 41, 4, 16, 20, 20, 114, 3, 9, 0)
s = 34: (0, 25, 67, 33, 6, 10, 25, 23, 31, 5, 38, 17, 52, 3, 9, 72, 3, 54, 113, 9, 33, 25, 10, 31, 2, 24, 16, 9, 82, 2, 10, 0)
s = 35: (0, 12, 56, 70, 6, 6, 26, 23, 57, 5, 46, 28, 102, 4, 19, 73, 3, 65, 88, 13, 27, 32, 17, 28, 3, 15, 13, 16, 117, 3, 12, 0)
s = 36: (0, 11, 66, 59, 8, 9, 19, 26, 25, 7, 17, 17, 102, 6, 15, 72, 3, 45, 46, 17, 39, 18, 16, 24, 2, 22, 15, 9, 54, 2, 8, 0)
s = 37: (0, 23, 32, 45, 6, 8, 21, 33, 57, 6, 19, 21, 83, 6, 12, 58, 2, 50, 94, 14, 53, 17, 17, 53, 2, 19, 17, 12, 108, 2, 9, 0)
s = 38: (0, 22, 58, 66, 6, 4, 19, 25, 38, 5, 29, 17, 81, 4, 16, 96, 2, 49, 62, 12, 18, 22, 14, 26, 2, 20, 16, 17, 102, 2, 8, 0)
s = 39: (0, 24, 63, 75, 7, 4, 29, 22, 36, 7, 43, 31, 55, 6, 18, 70, 3, 36, 54, 24, 44, 17, 14, 33, 2, 14, 26, 17, 80, 2, 12, 0)
s = 40: (0, 18, 87, 47, 12, 5, 20, 18, 39, 6, 35, 15, 46, 4, 15, 69, 3, 56, 111, 16, 41, 24, 13, 29, 3, 17, 21, 13, 65, 2, 9, 0)
s = 41: (0, 16, 29, 41, 11, 4, 14, 19, 48, 7, 27, 37, 115, 4, 15, 81, 3, 49, 70, 12, 43, 11, 11, 35, 2, 27, 13, 11, 65, 3, 9, 0)
s = 42: (0, 12, 51, 40, 9, 8, 22, 20, 32, 6, 27, 36, 89, 3, 17, 75, 3, 51, 50, 14, 28, 13, 20, 18, 3, 23, 23, 9, 92, 2, 9, 0)
s = 43: (0, 12, 48, 44, 6, 8, 22, 18, 80, 9, 29, 34, 82, 3, 11, 71, 2, 69, 45, 24, 33, 23, 11, 30, 3, 28, 21, 14, 64, 3, 10, 0)
s = 44: (0, 13, 56, 32, 6, 5, 28, 18, 44, 5, 48, 22, 72, 3, 17, 105, 2, 46, 51, 17, 32, 15, 11, 22, 4, 18, 21, 19, 102, 2, 7, 0)
s = 45: (0, 22, 61, 67, 8, 7, 20, 20, 34, 6, 28, 18, 69, 4, 12, 68, 2, 34, 95, 13, 44, 10, 18, 37, 2, 14, 17, 15, 54, 3, 7, 0)
s = 46: (0, 18, 47, 43, 6, 4, 24, 27, 45, 8, 24, 25, 56, 4, 17, 51, 3, 39, 56, 17, 20, 17, 13, 44, 2, 16, 30, 18, 68, 2, 7, 0)
s = 47: (0, 10, 43, 59, 6, 10, 15, 22, 32, 6, 23, 34, 112, 4, 11, 99, 2, 40, 63, 17, 18, 11, 12, 23, 3, 23, 22, 17, 49, 3, 11, 0)
s = 48: (0, 10, 47, 74, 7, 8, 14, 24, 53, 7, 30, 38, 77, 3, 16, 132, 3, 29, 52, 19, 49, 17, 11, 29, 4, 18, 37, 16, 73, 3, 8, 0)
s = 49: (0, 18, 56, 32, 8, 6, 21, 22, 26, 8, 54, 18, 108, 4, 11, 76, 2, 36, 83, 16, 38, 12, 14, 34, 2, 12, 19, 19, 74, 2, 14, 0)
s = 50: (0, 19, 49, 44, 8, 6, 21, 24, 42, 4, 22, 39, 85, 3, 21, 57, 3, 54, 65, 18, 20, 15, 20, 25, 2, 26, 23, 10, 59, 2, 7, 0)
s = 51: (0, 13, 56, 36, 9, 7, 15, 30, 34, 6, 21, 42, 100, 5, 13, 86, 3, 32, 72, 23, 29, 20, 22, 39, 2, 14, 17, 21, 71, 2, 8, 0)
s = 52: (0, 13, 46, 33, 5, 5, 15, 38, 56, 6, 21, 25, 105, 3, 9, 65, 3, 57, 48, 28, 26, 15, 15, 30, 2, 20, 22, 16, 109, 3, 9, 0)
s = 53: (0, 11, 73, 68, 8, 5, 25, 24, 37, 8, 24, 35, 74, 6, 11, 75, 3, 28, 83, 21, 35, 18, 15, 31, 3, 14, 15, 15, 62, 2, 9, 0)
s = 54: (0, 12, 66, 41, 9, 7, 31, 20, 56, 10, 34, 21, 90, 6, 26, 52, 2, 31, 67, 11, 32, 21, 18, 46, 3, 19, 21, 16, 88, 2, 9, 0)
s = 55: (0, 20, 36, 26, 11, 6, 13, 16, 54, 5, 33, 27, 80, 6, 16, 103, 2, 54, 66, 17, 31, 22, 27, 24, 2, 12, 34, 18, 62, 2, 8, 0)
s = 56: (0, 26, 35, 84, 10, 5, 19, 19, 39, 8, 21, 24, 96, 3, 19, 152, 3, 30, 100, 13, 19, 25, 20, 34, 3, 32, 24, 15, 110, 3, 7, 0)
s = 57: (0, 17, 62, 55, 9, 6, 26, 21, 38, 6, 20, 21, 137, 7, 18, 74, 2, 34, 85, 12, 31, 11, 24, 26, 4, 12, 17, 14, 51, 2, 7, 0)
s = 58: (0, 27, 47, 46, 10, 7, 14, 33, 42, 5, 41, 23, 77, 5, 17, 62, 3, 72, 45, 11, 48, 12, 16, 23, 3, 11, 14, 21, 66, 3, 9, 0)
s = 59: (0, 18, 55, 54, 10, 5, 26, 32, 34, 4, 19, 19, 67, 3, 12, 90, 3, 50, 108, 11, 29, 24, 24, 27, 2, 10, 16, 15, 53, 2, 5, 0)
s = 60: (0, 11, 58, 44, 9, 6, 19, 28, 59, 6, 38, 28, 68, 5, 15, 121, 2, 49, 48, 20, 28, 12, 18, 34, 3, 12, 26, 9, 45, 2, 10, 0)
s = 61: (0, 15, 57, 33, 10, 4, 15, 30, 34, 5, 30, 20, 85, 5, 13, 74, 2, 49, 53, 16, 37, 18, 16, 40, 2, 19, 16, 15, 101, 2, 9, 0)
s = 62: (0, 14, 42, 36, 7, 5, 14, 21, 28, 7, 33, 19, 76, 4, 10, 112, 2, 27, 83, 15, 45, 16, 13, 30, 2, 15, 25, 26, 63, 2, 11, 0)
s = 63: (0, 19, 43, 43, 9, 9, 26, 37, 38, 6, 17, 22, 101, 6, 17, 59, 3, 68, 58, 22, 27, 13, 15, 21, 4, 24, 29, 10, 62, 2, 10, 0)
s = 64: (0, 22, 44, 42, 8, 4, 15, 28, 46, 6, 54, 23, 87, 4, 11, 126, 2, 25, 63, 30, 21, 15, 11, 28, 2, 14, 16, 10, 94, 3, 6, 0)
s = 65: (0, 10, 32, 36, 8, 4, 16, 33, 50, 6, 18, 32, 85, 5, 11, 109, 2, 48, 85, 17, 28, 22, 17, 61, 3, 13, 38, 16, 59, 3, 11, 0)
s = 66: (0, 19, 41, 84, 12, 4, 23, 20, 39, 4, 20, 35, 61, 5, 13, 67, 3, 63, 63, 17, 22, 11, 21, 39, 2, 16, 18, 11, 96, 2, 6, 0)
s = 67: (0, 18, 31, 77, 8, 8, 26, 22, 49, 8, 34, 29, 65, 4, 14, 89, 2, 41, 46, 11, 43, 20, 21, 25, 2, 19, 15, 25, 85, 2, 10, 0)
s = 68: (0, 14, 46, 79, 12, 5, 19, 31, 30, 7, 41, 16, 54, 4, 23, 78, 2, 47, 84, 20, 33, 27, 15, 38, 2, 26, 20, 20, 125, 3, 8, 0)
s = 69: (0, 18, 66, 61, 5, 7, 11, 14, 42, 8, 28, 28, 100, 5, 15, 82, 3, 56, 119, 17, 30, 13, 15, 19, 3, 19, 18, 15, 107, 3, 13, 0)
s = 70: (0, 10, 49, 45, 13, 9, 17, 20, 61, 4, 29, 22, 66, 4, 12, 67, 2, 53, 90, 17, 25, 14, 17, 24, 3, 14, 20, 20, 71, 2, 16, 0)
s = 71: (0, 19, 30, 36, 7, 8, 17, 25, 25, 4, 23, 33, 133, 6, 19, 84, 2, 55, 55, 11, 31, 12, 9, 21, 2, 18, 16, 24, 67, 3, 8, 0)
s = 72: (0, 24, 57, 66, 10, 7, 23, 25, 26, 7, 26, 41, 66, 5, 12, 74, 2, 49, 53, 15, 17, 25, 16, 27, 2, 24, 29, 20, 112, 2, 8, 0)
s = 73: (0, 15, 41, 50, 11, 5, 17, 14, 53, 7, 22, 32, 43, 3, 15, 119, 3, 59, 55, 13, 38, 19, 26, 34, 4, 13, 18, 15, 83, 2, 8, 0)
s = 74: (0, 21, 59, 40, 7, 7, 14, 41, 58, 7, 20, 29, 58, 6, 28, 83, 3, 35, 59, 20, 41, 31, 11, 26, 3, 24, 22, 18, 63, 4, 7, 0)
s = 75: (0, 16, 56, 66, 10, 7, 24, 19, 33, 6, 24, 19, 88, 5, 14, 60, 2, 44, 69, 15, 34, 13, 9, 32, 2, 24, 21, 18, 63, 2, 13, 0)
s = 76: (0, 14, 33, 49, 7, 8, 13, 15, 28, 7, 29, 20, 95, 4, 20, 87, 3, 34, 100, 21, 37, 28, 11, 39, 2, 13, 23, 22, 75, 2, 9, 0)
s = 77: (0, 13, 30, 48, 10, 8, 18, 20, 32, 8, 22, 20, 60, 5, 11, 106, 3, 27, 50, 9, 59, 17, 19, 25, 2, 17, 27, 23, 63, 2, 7, 0)
s = 78: (0, 23, 29, 79, 6, 5, 14, 19, 44, 6, 23, 23, 60, 4, 16, 99, 3, 29, 86, 23, 36, 22, 18, 51, 2, 25, 13, 17, 107, 3, 6, 0)
s = 79: (0, 15, 54, 58, 9, 5, 15, 17, 54, 4, 21, 27, 69, 4, 18, 114, 2, 49, 50, 12, 35, 20, 15, 25, 3, 13, 32, 20, 82, 3, 8, 0)
s = 80: (0, 15, 68, 46, 8, 6, 19, 19, 28, 10, 28, 15, 92, 5, 19, 145, 2, 53, 78, 19, 30, 15, 10, 23, 2, 12, 13, 13, 50, 2, 11, 0)
s = 81: (0, 15, 45, 55, 13, 6, 16, 15, 74, 9, 27, 21, 142, 3, 11, 68, 2, 34, 42, 22, 34, 14, 11, 28, 2, 18, 24, 15, 63, 2, 6, 0)
s = 82: (0, 18, 42, 34, 8, 9, 11, 39, 47, 7, 43, 30, 151, 5, 14, 60, 2, 61, 84, 12, 43, 22, 11, 26, 3, 18, 14, 11, 45, 2, 6, 0)
s = 83: (0, 12, 75, 67, 6, 5, 20, 32, 47, 7, 29, 30, 70, 3, 18, 109, 3, 65, 89, 25, 51, 27, 9, 25, 2, 12, 26, 14, 122, 4, 8, 0)
s = 84: (0, 14, 70, 31, 9, 6, 25, 25, 42, 5, 28, 33, 73, 4, 22, 68, 2, 50, 64, 15, 39, 18, 10, 26, 2, 17, 15, 20, 46, 2, 11, 0)
s = 85: (0, 18, 29, 69, 9, 7, 20, 32, 44, 11, 39, 15, 72, 7, 17, 91, 3, 41, 93, 17, 49, 16, 10, 46, 2, 16, 16, 11, 82, 2, 11, 0)
s = 86: (0, 19, 42, 45, 6, 6, 19, 18, 60, 6, 40, 26, 121, 3, 17, 116, 2, 36, 86, 23, 29, 10, 17, 40, 2, 14, 15, 16, 47, 2, 8, 0)
s = 87: (0, 14, 46, 66, 9, 6, 23, 36, 35, 5, 41, 27, 101, 3, 33, 75, 4, 36, 103, 19, 17, 15, 10, 19, 3, 12, 16, 17, 84, 2, 11, 0)
s = 88: (0, 11, 39, 54, 7, 5, 19, 17, 43, 4, 25, 26, 46, 6, 12, 57, 2, 31, 73, 15, 37, 13, 12, 37, 3, 11, 17, 9, 56, 3, 13, 0)
s = 89: (0, 12, 62, 44, 9, 7, 25, 25, 37, 6, 30, 15, 137, 5, 18, 69, 2, 32, 81, 17, 24, 14, 12, 30, 3, 24, 20, 14, 90, 3, 10, 0)
s = 90: (0, 16, 33, 59, 7, 6, 20, 33, 30, 7, 32, 21, 109, 6, 15, 92, 4, 43, 71, 10, 31, 25, 16, 42, 2, 21, 16, 15, 94, 2, 9, 0)
s = 91: (0, 15, 65, 51, 6, 6, 15, 32, 41, 4, 30, 17, 57, 5, 28, 89, 3, 35, 113, 20, 36, 15, 14, 21, 2, 17, 20, 19, 79, 2, 9, 0)
s = 92: (0, 16, 43, 66, 11, 6, 30, 20, 38, 4, 35, 27, 103, 6, 20, 84, 3, 49, 110, 14, 31, 13, 10, 46, 2, 21, 29, 20, 95, 2, 10, 0)
s = 93: (0, 16, 28, 42, 7, 4, 39, 17, 34, 10, 32, 14, 77, 7, 18, 47, 3, 42, 60, 24, 35, 14, 29, 24, 3, 12, 19, 12, 102, 2, 14, 0)
s = 94: (0, 12, 48, 68, 8, 8, 17, 24, 30, 4, 20, 34, 49, 4, 11, 84, 3, 27, 60, 14, 38, 30, 23, 37, 2, 14, 23, 12, 60, 3, 12, 0)
s = 95: (0, 19, 46, 53, 9, 8, 16, 15, 28, 8, 31, 28, 122, 4, 30, 110, 2, 62, 105, 11, 20, 19, 12, 39, 2, 17, 31, 11, 75, 3, 15, 0)
s = 96: (0, 14, 47, 41, 12, 7, 26, 19, 75, 6, 26, 26, 70, 6, 9, 117, 2, 56, 108, 10, 22, 21, 11, 43, 3, 18, 29, 19, 47, 2, 9, 0)
s = 97: (0, 27, 41, 51, 7, 4, 30, 17, 47, 8, 22, 24, 97, 7, 15, 103, 3, 39, 38, 17, 21, 11, 18, 39, 2, 17, 23, 16, 79, 3, 8, 0)
s = 98: (0, 13, 56, 54, 5, 6, 34, 17, 36, 8, 22, 24, 59, 5, 17, 53, 2, 78, 62, 14, 33, 16, 14, 52, 2, 12, 23, 20, 94, 2, 7, 0)
s = 99: (0, 11, 29, 56, 10, 5, 20, 21, 45, 6, 18, 30, 76, 6, 14, 86, 3, 30, 54, 20, 24, 16, 15, 21, 2, 17, 18, 20, 129, 2, 11, 0)
s = 100: (0, 23, 64, 40, 8, 6, 21, 24, 51, 10, 21, 19, 72, 3, 18, 109, 2, 35, 81, 11, 22, 22, 14, 39, 2, 17, 12, 20, 87, 2, 7, 0)
s = 101: (0, 10, 70, 50, 9, 7, 15, 19, 35, 5, 30, 29, 72, 3, 20, 75, 2, 39, 44, 16, 33, 19, 13, 42, 3, 13, 17, 13, 95, 2, 6, 0)
s = 102: (0, 25, 47, 58, 8, 6, 15, 20, 35, 8, 36, 14, 64, 6, 12, 93, 2, 30, 76, 20, 33, 24, 14, 19, 2, 15, 18, 13, 60, 3, 9, 0)
s = 103: (0, 9, 52, 38, 10, 7, 21, 15, 31, 6, 35, 45, 59, 3, 14, 78, 2, 36, 69, 11, 32, 15, 12, 40, 2, 22, 20, 11, 85, 3, 13, 0)
s = 104: (0, 14, 42, 58, 7, 7, 14, 19, 31, 6, 24, 29, 54, 6, 26, 64, 4, 56, 52, 15, 41, 13, 16, 32, 4, 14, 19, 12, 79, 3, 10, 0)
s = 105: (0, 18, 45, 64, 10, 9, 23, 18, 33, 4, 36, 21, 94, 5, 17, 76, 3, 62, 125, 16, 43, 12, 23, 28, 3, 16, 17, 13, 69, 2, 13, 0)
s = 106: (0, 20, 44, 49, 10, 9, 31, 35, 49, 4, 22, 24, 81, 3, 23, 80, 2, 55, 86, 17, 30, 14, 14, 40, 4, 22, 28, 20, 47, 3, 8, 0)
s = 107: (0, 16, 32, 44, 9, 5, 15, 22, 43, 8, 35, 24, 129, 3, 14, 88, 2, 68, 59, 18, 25, 11, 17, 30, 3, 21, 27, 21, 73, 2, 8, 0)
s = 108: (0, 20, 57, 51, 8, 10, 20, 17, 41, 6, 47, 17, 78, 4, 24, 96, 3, 52, 66, 17, 33, 18, 13, 32, 3, 14, 22, 18, 80, 2, 10, 0)
s = 109: (0, 26, 79, 34, 9, 5, 23, 30, 46, 4, 23, 27, 105, 6, 25, 121, 3, 78, 79, 21, 28, 22, 14, 55, 2, 19, 26, 15, 81, 2, 9, 0)
s = 110: (0, 13, 51, 40, 8, 7, 25, 29, 41, 8, 31, 19, 79, 3, 30, 116, 2, 63, 75, 21, 28, 17, 17, 55, 3, 13, 16, 16, 53, 4, 9, 0)
s = 111: (0, 25, 33, 35, 11, 9, 24, 21, 47, 6, 24, 28, 69, 8, 12, 99, 3, 52, 59, 17, 22, 17, 20, 21, 3, 18, 25, 21, 47, 2, 11, 0)
s = 112: (0, 21, 36, 37, 8, 5, 23, 39, 26, 6, 36, 27, 69, 4, 13, 67, 2, 41, 59, 17, 30, 13, 20, 34, 2, 17, 24, 16, 84, 4, 11, 0)
s = 113: (0, 20, 73, 50, 6, 6, 19, 18, 42, 7, 28, 29, 54, 4, 12, 113, 4, 39, 47, 15, 38, 17, 20, 35, 3, 15, 17, 18, 50, 3, 6, 0)
s = 114: (0, 22, 43, 42, 14, 7, 17, 19, 27, 6, 42, 29, 97, 6, 12, 59, 3, 67, 51, 13, 34, 21, 10, 22, 2, 11, 14, 13, 58, 3, 6, 0)
s = 115: (0, 15, 38, 63, 13, 7, 19, 32, 34, 11, 25, 29, 117, 4, 15, 67, 3, 37, 90, 11, 21, 14, 20, 32, 2, 23, 36, 19, 76, 2, 11, 0)
s = 116: (0, 9, 52, 28, 7, 8, 19, 14, 49, 10, 38, 25, 80, 4, 24, 54, 4, 28, 107, 19, 20, 12, 11, 40, 2, 18, 26, 11, 60, 2, 10, 0)
s = 117: (0, 12, 35, 69, 14, 8, 28, 27, 47, 5, 19, 27, 115, 4, 15, 82, 2, 47, 86, 20, 38, 21, 13, 39, 3, 24, 19, 14, 80, 3, 9, 0)
s = 118: (0, 10, 74, 39, 9, 5, 18, 23, 53, 7, 29, 25, 61, 5, 11, 62, 2, 38, 108, 18, 35, 17, 15, 24, 4, 13, 28, 13, 80, 4, 14, 0)
s = 119: (0, 14, 41, 52, 13, 6, 16, 26, 30, 8, 39, 27, 105, 5, 14, 50, 3, 31, 78, 16, 41, 17, 17, 55, 2, 18, 28, 19, 53, 3, 9, 0)
s = 120: (0, 20, 41, 37, 7, 8, 15, 23, 57, 9, 39, 30, 98, 4, 22, 123, 2, 39, 72, 20, 43, 18, 14, 55, 3, 17, 15, 19, 100, 3, 6, 0)
s = 121: (0, 16, 38, 31, 9, 9, 21, 16, 48, 5, 28, 21, 57, 4, 28, 45, 2, 60, 57, 9, 26, 17, 21, 50, 3, 15, 18, 16, 96, 2, 13, 0)
s = 122: (0, 14, 46, 59, 8, 7, 26, 35, 48, 9, 38, 18, 91, 5, 15, 57, 2, 40, 64, 16, 32, 17, 14, 22, 3, 21, 25, 12, 125, 3, 7, 0)
s = 123: (0, 18, 44, 88, 13, 8, 18, 16, 39, 6, 29, 30, 76, 4, 19, 116, 3, 55, 49, 29, 22, 12, 15, 34, 2, 19, 24, 19, 86, 3, 8, 0)
s = 124: (0, 21, 44, 69, 7, 4, 17, 27, 56, 6, 32, 30, 63, 3, 20, 87, 2, 34, 53, 23, 31, 25, 18, 25, 2, 19, 25, 26, 47, 3, 5, 0)
s = 125: (0, 26, 61, 48, 10, 7, 15, 30, 43, 5, 34, 18, 135, 3, 10, 117, 4, 47, 96, 16, 37, 15, 20, 50, 2, 22, 22, 21, 91, 3, 7, 0)
s = 126: (0, 12, 56, 58, 9, 7, 19, 19, 33, 5, 21, 23, 69, 4, 17, 72, 2, 81, 82, 11, 20, 15, 12, 42, 3, 17, 13, 24, 76, 3, 10, 0)
s = 127: (0, 18, 51, 72, 7, 7, 15, 29, 47, 5, 25, 13, 46, 4, 18, 44, 3, 44, 79, 20, 49, 29, 10, 39, 2, 15, 17, 17, 51, 3, 13, 0)
s = 128: (0, 14, 31, 45, 7, 5, 22, 29, 37, 7, 36, 18, 91, 4, 14, 112, 3, 38, 76, 11, 21, 16, 20, 21, 3, 24, 19, 21, 85, 3, 6, 0)
s = 129: (0, 16, 36, 64, 15, 6, 25, 19, 66, 5, 19, 27, 43, 5, 19, 101, 2, 27, 56, 13, 26, 19, 11, 21, 2, 15, 22, 18, 79, 2, 9, 0)
s = 130: (0, 9, 61, 30, 8, 6, 25, 28, 31, 9, 30, 29, 87, 4, 13, 77, 2, 43, 52, 15, 27, 11, 10, 22, 2, 27, 17, 9, 73, 3, 12, 0)
s = 131: (0, 20, 41, 41, 10, 6, 22, 24, 30, 12, 41, 26, 76, 5, 15, 52, 3, 47, 66, 16, 30, 16, 11, 23, 2, 22, 35, 20, 69, 3, 12, 0)
s = 132: (0, 13, 37, 42, 8, 8, 19, 24, 40, 4, 48, 14, 88, 4, 13, 68, 2, 58, 45, 17, 29, 13, 16, 28, 2, 13, 19, 23, 120, 3, 9, 0)
s = 133: (0, 13, 30, 79, 9, 8, 35, 31, 30, 10, 31, 28, 68, 4, 16, 49, 2, 37, 116, 14, 25, 27, 16, 28, 2, 23, 22, 10, 79, 2, 7, 0)
s = 134: (0, 19, 47, 64, 7, 9, 16, 17, 28, 6, 34, 25, 62, 5, 24, 51, 2, 40, 43, 13, 49, 18, 10, 48, 2, 12, 15, 14, 95, 2, 9, 0)
s = 135: (0, 20, 60, 43, 5, 6, 17, 48, 40, 10, 54, 20, 74, 5, 14, 99, 2, 42, 64, 10, 33, 13, 13, 37, 3, 21, 12, 11, 54, 3, 12, 0)
s = 136: (0, 16, 32, 73, 8, 8, 19, 28, 31, 5, 24, 22, 107, 3, 10, 91, 3, 60, 55, 30, 44, 19, 15, 22, 3, 12, 29, 15, 96, 3, 6, 0)
s = 137: (0, 9, 44, 65, 12, 6, 18, 30, 43, 6, 35, 20, 55, 4, 16, 48, 3, 47, 91, 14, 23, 17, 24, 18, 3, 22, 16, 12, 94, 2, 10, 0)
s = 138: (0, 11, 48, 49, 8, 6, 23, 18, 48, 5, 41, 20, 99, 3, 18, 60, 3, 33, 61, 21, 29, 13, 12, 22, 3, 22, 12, 11, 83, 3, 6, 0)
s = 139: (0, 11, 40, 61, 11, 10, 24, 28, 32, 8, 39, 17, 61, 3, 13, 64, 3, 43, 52, 13, 51, 15, 13, 35, 3, 22, 35, 11, 142, 3, 9, 0)
s = 140: (0, 9, 55, 41, 8, 7, 16, 16, 56, 7, 35, 15, 75, 3, 16, 49, 2, 23, 44, 14, 31, 17, 15, 33, 2, 15, 19, 13, 62, 3, 10, 0)
s = 141: (0, 13, 65, 51, 14, 5, 27, 24, 50, 4, 20, 34, 49, 3, 14, 59, 3, 63, 62, 14, 31, 24, 12, 46, 2, 12, 28, 11, 79, 2, 8, 0)
s = 142: (0, 17, 59, 31, 8, 9, 20, 34, 55, 7, 21, 24, 113, 5, 20, 91, 2, 48, 67, 23, 30, 26, 24, 47, 2, 21, 16, 16, 58, 3, 15, 0)
s = 143: (0, 12, 41, 41, 8, 8, 16, 18, 41, 5, 44, 17, 85, 5, 15, 62, 3, 43, 120, 18, 47, 15, 14, 38, 3, 21, 13, 21, 66, 3, 12, 0)
s = 144: (0, 24, 66, 43, 6, 8, 30, 22, 50, 10, 38, 21, 108, 5, 17, 100, 2, 48, 96, 11, 45, 17, 27, 29, 2, 16, 22, 18, 46, 2, 7, 0)
s = 145: (0, 15, 39, 67, 6, 8, 28, 22, 46, 9, 50, 22, 98, 6, 22, 60, 2, 43, 54, 15, 35, 13, 17, 32, 2, 25, 27, 14, 42, 2, 15, 0)
s = 146: (0, 9, 34, 63, 12, 6, 25, 19, 25, 8, 27, 22, 91, 3, 23, 67, 2, 44, 65, 18, 30, 33, 19, 39, 3, 24, 22, 16, 129, 3, 9, 0)
s = 147: (0, 16, 56, 38, 6, 5, 20, 27, 27, 9, 39, 14, 75, 5, 17, 60, 4, 38, 41, 19, 45, 18, 11, 34, 2, 22, 25, 14, 82, 2, 7, 0)
s = 148: (0, 14, 28, 63, 12, 5, 11, 21, 71, 5, 34, 24, 77, 5, 25, 54, 3, 31, 65, 21, 21, 18, 27, 52, 3, 30, 16, 11, 91, 3, 13, 0)
s = 149: (0, 19, 27, 64, 7, 6, 11, 28, 34, 5, 30, 21, 50, 5, 14, 46, 2, 62, 59, 15, 21, 24, 11, 35, 2, 19, 28, 14, 67, 2, 11, 0)
s = 150: (0, 14, 28, 49, 12, 5, 22, 25, 75, 7, 16, 26, 47, 6, 14, 89, 3, 44, 55, 10, 20, 18, 18, 31, 3, 27, 26, 20, 151, 2, 12, 0)
s = 151: (0, 16, 43, 49, 11, 5, 31, 33, 29, 8, 26, 27, 52, 4, 20, 58, 2, 32, 70, 15, 24, 19, 22, 22, 4, 27, 29, 13, 99, 2, 8, 0)
s = 152: (0, 16, 45, 40, 8, 5, 22, 25, 30, 8, 29, 22, 76, 6, 18, 46, 3, 46, 82, 13, 35, 17, 14, 21, 2, 17, 22, 21, 95, 2, 8, 0)
s = 153: (0, 17, 33, 49, 7, 6, 22, 20, 39, 6, 40, 21, 81, 5, 15, 130, 2, 54, 55, 11, 34, 25, 14, 36, 2, 29, 21, 12, 112, 3, 8, 0)
s = 154: (0, 16, 42, 37, 11, 5, 19, 21, 59, 6, 23, 24, 52, 4, 10, 93, 2, 26, 60, 13, 21, 16, 9, 34, 3, 13, 32, 17, 55, 3, 12, 0)
s = 155: (0, 17, 68, 62, 9, 8, 16, 30, 40, 4, 33, 33, 71, 4, 15, 77, 3, 36, 50, 12, 32, 18, 26, 29, 2, 22, 13, 12, 59, 3, 8, 0)
s = 156: (0, 12, 44, 45, 9, 8, 17, 24, 54, 5, 34, 14, 116, 6, 26, 52, 2, 45, 99, 12, 21, 19, 15, 25, 3, 14, 20, 16, 84, 2, 13, 0)
s = 157: (0, 27, 73, 37, 9, 6, 15, 22, 51, 5, 38, 22, 70, 3, 19, 80, 2, 31, 92, 9, 22, 23, 15, 19, 3, 19, 26, 11, 82, 2, 13, 0)
s = 158: (0, 14, 54, 40, 8, 9, 14, 29, 31, 6, 32, 28, 99, 4, 19, 86, 2, 43, 104, 15, 37, 18, 11, 21, 2, 19, 19, 27, 93, 3, 10, 0)
s = 159: (0, 10, 33, 32, 9, 8, 29, 25, 51, 5, 28, 29, 78, 5, 23, 71, 3, 35, 65, 14, 23, 16, 19, 30, 2, 11, 15, 25, 81, 2, 11, 0)
s = 160: (0, 15, 50, 55, 10, 9, 19, 25, 48, 5, 28, 18, 78, 3, 10, 152, 2, 65, 43, 18, 40, 18, 18, 26, 3, 20, 19, 12, 105, 2, 7, 0)
s = 161: (0, 12, 45, 37, 8, 8, 35, 18, 26, 4, 31, 40, 83, 5, 24, 77, 3, 54, 54, 15, 40, 15, 10, 29, 2, 22, 16, 14, 62, 2, 13, 0)
s = 162: (0, 15, 54, 51, 8, 4, 26, 28, 37, 4, 25, 35, 59, 6, 15, 77, 3, 66, 66, 12, 25, 14, 21, 25, 3, 10, 17, 22, 101, 3, 6, 0)
s = 163: (0, 17, 46, 79, 10, 6, 24, 35, 37, 4, 22, 25, 84, 5, 10, 57, 2, 61, 84, 20, 33, 11, 14, 41, 3, 19, 24, 15, 118, 3, 12, 0)
s = 164: (0, 10, 50, 69, 9, 8, 25, 14, 32, 7, 34, 18, 56, 5, 12, 71, 2, 43, 61, 19, 35, 11, 16, 33, 2, 19, 18, 12, 65, 2, 13, 0)
s = 165: (0, 11, 60, 66, 9, 5, 15, 26, 61, 6, 33, 27, 57, 5, 17, 68, 3, 31, 92, 12, 31, 17, 10, 26, 2, 20, 16, 18, 87, 2, 13, 0)
s = 166: (0, 22, 47, 39, 6, 5, 21, 26, 47, 9, 41, 20, 97, 6, 13, 86, 3, 31, 77, 18, 27, 15, 23, 25, 2, 29, 22, 12, 45, 4, 9, 0)
s = 167: (0, 14, 28, 43, 11, 8, 22, 27, 56, 6, 25, 16, 64, 3, 13, 101, 3, 33, 57, 14, 35, 33, 19, 42, 2, 15, 16, 20, 82, 3, 7, 0)
s = 168: (0, 26, 33, 33, 14, 6, 22, 25, 41, 7, 32, 18, 55, 3, 10, 53, 2, 48, 90, 15, 26, 14, 14, 41, 3, 13, 12, 9, 56, 3, 10, 0)
s = 169: (0, 26, 49, 70, 10, 6, 14, 16, 42, 5, 23, 24, 110, 3, 22, 72, 2, 37, 83, 12, 23, 14, 18, 24, 2, 13, 20, 15, 92, 2, 12, 0)
s = 170: (0, 18, 56, 49, 12, 6, 20, 14, 55, 6, 32, 39, 89, 5, 17, 74, 3, 67, 86, 27, 32, 20, 19, 24, 2, 19, 13, 19, 86, 3, 9, 0)
s = 171: (0, 18, 28, 62, 12, 5, 39, 21, 27, 7, 26, 17, 71, 7, 12, 57, 3, 29, 81, 17, 26, 17, 14, 23, 2, 19, 30, 17, 53, 2, 5, 0)
s = 172: (0, 12, 65, 48, 7, 8, 15, 30, 29, 6, 38, 16, 89, 5, 20, 87, 3, 44, 72, 13, 22, 26, 10, 36, 2, 13, 14, 22, 91, 2, 9, 0)
s = 173: (0, 14, 54, 40, 13, 6, 12, 17, 43, 6, 31, 20, 99, 5, 23, 97, 2, 47, 76, 26, 51, 16, 16, 29, 2, 20, 27, 10, 47, 2, 8, 0)
s = 174: (0, 16, 39, 49, 14, 7, 20, 17, 47, 5, 43, 27, 71, 3, 11, 73, 4, 48, 107, 19, 25, 28, 21, 36, 2, 14, 14, 26, 98, 2, 6, 0)
s = 175: (0, 19, 60, 55, 11, 5, 21, 20, 44, 5, 28, 17, 88, 7, 16, 75, 2, 46, 66, 12, 24, 14, 14, 43, 2, 12, 13, 13, 78, 2, 11, 0)
s = 176: (0, 20, 41, 35, 6, 5, 26, 29, 50, 8, 34, 21, 77, 3, 10, 74, 3, 26, 52, 18, 41, 17, 15, 37, 2, 17, 15, 24, 57, 3, 10, 0)
s = 177: (0, 17, 46, 83, 11, 7, 18, 20, 45, 8, 46, 18, 46, 5, 16, 83, 2, 48, 68, 16, 32, 12, 9, 37, 3, 11, 20, 12, 111, 3, 8, 0)
s = 178: (0, 16, 42, 47, 12, 6, 26, 20, 31, 9, 39, 24, 58, 5, 15, 47, 2, 27, 47, 18, 39, 19, 25, 36, 2, 21, 20, 12, 51, 3, 9, 0)
s = 179: (0, 16, 50, 42, 8, 7, 14, 26, 50, 5, 32, 27, 104, 6, 11, 63, 4, 57, 121, 20, 21, 13, 17, 45, 2, 14, 15, 14, 141, 2, 11, 0)
s = 180: (0, 24, 42, 60, 6, 5, 20, 27, 60, 7, 35, 23, 107, 5, 20, 105, 2, 28, 52, 10, 25, 14, 16, 35, 2, 17, 23, 19, 82, 4, 10, 0)
s = 181: (0, 14, 35, 36, 6, 4, 16, 23, 40, 8, 36, 19, 53, 4, 14, 99, 2, 50, 70, 26, 24, 30, 15, 31, 3, 17, 12, 22, 61, 4, 13, 0)
s = 182: (0, 13, 46, 36, 12, 5, 17, 37, 61, 8, 34, 31, 113, 4, 20, 49, 2, 40, 73, 14, 32, 23, 18, 25, 3, 14, 17, 16, 67, 2, 9, 0)
s = 183: (0, 18, 38, 65, 9, 12, 13, 27, 29, 8, 30, 17, 121, 6, 26, 120, 3, 63, 96, 19, 23, 16, 16, 22, 4, 13, 23, 19, 89, 2, 9, 0)
s = 184: (0, 11, 43, 56, 7, 10, 28, 25, 40, 7, 26, 19, 86, 4, 20, 86, 2, 42, 102, 9, 18, 21, 19, 23, 2, 10, 16, 20, 84, 2, 8, 0)
s = 185: (0, 12, 59, 64, 5, 11, 18, 16, 34, 5, 26, 28, 87, 3, 19, 63, 3, 62, 111, 15, 43, 10, 11, 43, 3, 15, 18, 12, 85, 3, 11, 0)
s = 186: (0, 9, 36, 43, 6, 5, 14, 34, 45, 7, 39, 17, 86, 4, 16, 49, 2, 51, 51, 9, 25, 19, 10, 31, 3, 19, 18, 13, 89, 2, 6, 0)
s = 187: (0, 14, 81, 59, 8, 7, 17, 22, 49, 8, 33, 27, 86, 3, 21, 53, 3, 31, 86, 14, 28, 24, 16, 38, 3, 24, 16, 26, 65, 3, 9, 0)
s = 188: (0, 22, 30, 56, 11, 10, 13, 22, 46, 9, 32, 19, 46, 3, 16, 66, 2, 29, 98, 22, 41, 15, 10, 46, 3, 19, 23, 18, 108, 3, 7, 0)
s = 189: (0, 13, 60, 55, 10, 8, 33, 27, 41, 7, 16, 18, 83, 4, 17, 60, 2, 27, 97, 18, 34, 15, 23, 54, 2, 17, 24, 18, 67, 3, 13, 0)
s = 190: (0, 16, 52, 51, 12, 6, 23, 28, 39, 8, 37, 29, 51, 5, 15, 63, 3, 36, 71, 15, 40, 15, 25, 34, 2, 22, 30, 22, 108, 3, 14, 0)
s = 191: (0, 17, 54, 33, 8, 7, 23, 19, 27, 10, 22, 23, 66, 6, 13, 59, 3, 52, 55, 22, 19, 15, 11, 20, 3, 16, 28, 17, 97, 2, 13, 0)
s = 192: (0, 21, 42, 44, 6, 11, 17, 25, 39, 7, 23, 29, 57, 6, 26, 49, 2, 30, 85, 21, 28, 22, 26, 29, 2, 15, 22, 18, 65, 2, 16, 0)
s = 193: (0, 17, 36, 57, 10, 5, 26, 33, 58, 8, 28, 30, 72, 4, 21, 141, 2, 24, 122, 12, 43, 17, 19, 49, 3, 19, 16, 18, 87, 3, 6, 0)
s = 194: (0, 13, 63, 55, 8, 7, 23, 18, 40, 6, 28, 35, 118, 4, 15, 129, 2, 67, 55, 13, 21, 15, 18, 29, 2, 25, 14, 11, 47, 3, 10, 0)
s = 195: (0, 27, 50, 55, 5, 11, 27, 15, 74, 7, 23, 17, 98, 5, 16, 70, 2, 61, 41, 11, 20, 27, 11, 49, 2, 16, 14, 11, 118, 2, 9, 0)
s = 196: (0, 28, 46, 60, 8, 9, 12, 25, 44, 4, 20, 24, 58, 4, 17, 110, 2, 44, 76, 21, 39, 25, 14, 31, 2, 24, 19, 10, 130, 3, 9, 0)
s = 197: (0, 20, 27, 50, 9, 6, 20, 34, 29, 5, 33, 22, 87, 4, 13, 111, 2, 48, 59, 11, 32, 22, 15, 20, 2, 13, 20, 17, 105, 2, 9, 0)
s = 198: (0, 20, 26, 64, 10, 10, 16, 36, 35, 8, 38, 22, 79, 3, 24, 49, 3, 35, 94, 15, 23, 23, 22, 18, 2, 12, 25, 18, 92, 2, 9, 0)
s = 199: (0, 18, 91, 30, 5, 6, 15, 25, 49, 5, 38, 21, 76, 5, 18, 52, 2, 43, 70, 18, 35, 20, 10, 44, 3, 29, 16, 12, 71, 3, 11, 0)
s = 200: (0, 19, 46, 49, 12, 7, 14, 28, 29, 7, 36, 26, 58, 3, 20, 67, 2, 45, 73, 13, 16, 16, 10, 32, 3, 10, 15, 20, 114, 3, 10, 0)
************************************************************************
ES/LS-VALUES:
jobnr.   ES(i)    LS(i)
------------------------------------------------------------------------
  0        0        0
  1        0       60
  2        0       46
  3        0       88
  4        3       92
  5        3       80
  6        3       64
  7       11       81
  8       11       58
  9       24       86
 10       24       72
 11       42       100
 12       27       97
 13       42       105
 14       11       101
 15       44       113
 16       44       107
 17       51       109
 18       42       90
 19       57       117
 20       51       147
 21       62       121
 22       57       106
 23       73       132
 24       73       155
 25       28       134
 26       71       121
 27       33       143
 28       90       140
 29       75       157
 30       56       153
 31       108       159
************************************************************************
BIG-M-VALUES:
M1 = 39, M2 = 156
************************************************************************
